{'code': [1, 13, 2, 12, 7, 15, 2, 12, 11, 1, 8, 19, 16, 19, 7, 5, 5, 16, 7, 15, 10, 19, 18, 4, 0, 15
, 6, 1, 3, 11, 1, 14, 4, 4, 10, 12, 0, 3, 10, 1, 4, 8, 0, 13, 18, 15, 16, 15, 16, 12, 1, 3, 8, 19, 6
, 6, 15, 10, 9, 5, 14, 18, 14, 5, 2, 1, 3, 18, 8, 12, 0, 1, 17, 2, 1, 19, 12, 13, 7, 11, 6, 2, 18, 1
9, 16, 11, 8, 9, 0, 10, 10, 0, 9, 4, 4, 4, 14, 13, 16, 18, 9, 3, 16, 3, 8, 16, 1, 12, 14, 11, 10, 17
, 14, 13, 3, 15, 7, 17, 19, 3, 13, 15, 4, 5, 6, 4, 5, 9, 12, 19, 5, 7, 16, 19, 6, 9, 7, 19, 0, 18, 1
4, 0, 2, 17, 18, 17, 6, 7, 10, 14, 15, 9, 0, 8, 1, 4, 12, 18, 9, 17, 10, 16, 15, 13, 13, 2, 15, 7, 1
1, 13, 9, 18, 16, 14, 6, 12, 6, 6, 14, 19, 18, 19, 17, 7, 19, 17, 16, 6, 8, 9, 11, 15, 2, 12, 1, 8, 
8, 5, 10, 18, 7, 6, 6, 7, 5, 15, 4, 11, 9, 17, 14, 5, 3, 0, 14, 0, 7, 11, 4, 6, 9, 3, 2, 4, 1, 17, 2
, 16, 4, 0, 8, 3, 18, 5, 15, 2, 13, 11, 17, 11], 'route': None, 'mac': [[0, 7, 7, 0, 1, 8, 6, 0, 8, 
3, 1, 3], [7, 4, 1, 4, 2, 0, 6, 0, 6, 0, 6, 3, 8], [6, 4, 9, 1, 6, 3, 0, 0, 4, 2, 2], [5, 0, 3, 7, 3
, 7, 3, 4, 2, 6, 0], [7, 3, 4, 4, 2, 9, 6, 7, 4, 1, 8, 4, 9, 0], [6, 9, 0, 2, 4, 6, 7, 7, 1, 6, 8], 
[7, 7, 7, 3, 0, 1, 1, 4, 6, 0, 5, 6, 6, 9], [0, 1, 4, 6, 8, 9, 5, 1, 1, 5, 1, 3, 4], [7, 1, 0, 3, 4,
 2, 5, 8, 8, 1, 4], [3, 0, 2, 1, 8, 8, 4, 2, 1, 1, 5, 0], [8, 4, 1, 3, 8, 4, 3, 2, 0, 2], [9, 3, 3, 
8, 5, 6, 1, 7, 3, 4, 9], [1, 2, 8, 4, 1, 2, 1, 7, 0, 0, 6], [4, 0, 9, 1, 6, 8, 3, 2, 6, 2], [0, 3, 1
, 5, 4, 8, 1, 9, 3, 2, 0, 6], [7, 0, 2, 8, 7, 6, 6, 9, 5, 1, 3, 4, 4, 9], [1, 8, 6, 7, 4, 4, 0, 6, 1
, 9, 2, 2, 0], [5, 8, 4, 4, 2, 4, 8, 1, 9, 7, 0], [2, 1, 6, 9, 1, 0, 3, 1, 4, 4, 1, 6, 4], [3, 9, 6,
 2, 4, 0, 4, 0, 7, 8, 1, 2, 1]], 'wok': None}
